\ Model SP_copy
\ LP format - for model browsing. Use MPS format to capture full model detail.
Minimize
  + 60.1596 Constant
Subject To
 C5_new_nj_iff_facility_is_open(3,3,0): - r(3,3,0) + n(3,3,0) <= 0
Bounds
 r(3,3,0) = 0
 n(3,3,0) >= 0.4488888888888889
 Constant = 1
Binaries
 r(3,3,0)
End
